; benchmark generated from python API
(set-info :status unknown)
(declare-fun strlen_72_64 () (_ BitVec 64))
(declare-fun args_0_8 () (_ BitVec 8))
(declare-fun strlen_75_64 () (_ BitVec 64))
(declare-fun args_1_8 () (_ BitVec 8))
(declare-fun sigaction_oldact_171_1216 () (_ BitVec 1216))
(declare-fun sigaction_oldact_176_1216 () (_ BitVec 1216))
(declare-fun sigaction_oldact_187_1216 () (_ BitVec 1216))
(declare-fun sigaction_oldact_204_1216 () (_ BitVec 1216))
(declare-fun sigaction_oldact_238_1216 () (_ BitVec 1216))
(declare-fun sigaction_oldact_304_1216 () (_ BitVec 1216))
(declare-fun sigaction_oldact_437_1216 () (_ BitVec 1216))
(declare-fun sigaction_oldact_706_1216 () (_ BitVec 1216))
(declare-fun sigaction_oldact_1219_1216 () (_ BitVec 1216))
(assert
 (let (($x351 (= (_ bv1 64) strlen_72_64)))
 (not $x351)))
(assert
 (let ((?x82 (bvadd (_ bv576460752303357824 64) strlen_72_64)))
 (let (($x69 (= (_ bv0 8) args_0_8)))
 (let ((?x46 (ite $x69 (_ bv576460752303357824 64) (_ bv576460752303357825 64))))
 (= ?x46 ?x82)))))
(assert
 (let (($x347 (= (_ bv0 8) args_1_8)))
 (let ((?x355 (ite $x347 (_ bv576460752303357826 64) (_ bv576460752303357827 64))))
 (let ((?x356 (bvsub ?x355 (_ bv576460752303357826 64))))
 (= ?x356 strlen_75_64)))))
(assert
 (let ((?x1831 ((_ extract 127 120) sigaction_oldact_171_1216)))
 (let ((?x2319 (bvand ?x1831 (_ bv4 8))))
 (and (distinct (_ bv0 8) ?x2319) true))))
(assert
 (let ((?x2276 ((_ extract 127 120) sigaction_oldact_176_1216)))
 (let ((?x2398 (bvand ?x2276 (_ bv4 8))))
 (and (distinct (_ bv0 8) ?x2398) true))))
(assert
 (let ((?x2885 ((_ extract 127 120) sigaction_oldact_187_1216)))
 (let ((?x2910 (bvand ?x2885 (_ bv4 8))))
 (and (distinct (_ bv0 8) ?x2910) true))))
(assert
 (let ((?x4024 ((_ extract 127 120) sigaction_oldact_204_1216)))
 (let ((?x4067 (bvand ?x4024 (_ bv4 8))))
 (= (_ bv0 8) ?x4067))))
(assert
 (let ((?x6072 ((_ extract 127 120) sigaction_oldact_238_1216)))
 (let ((?x6097 (bvand ?x6072 (_ bv4 8))))
 (and (distinct (_ bv0 8) ?x6097) true))))
(assert
 (let ((?x10678 ((_ extract 127 120) sigaction_oldact_304_1216)))
 (let ((?x10684 (bvand ?x10678 (_ bv4 8))))
 (and (distinct (_ bv0 8) ?x10684) true))))
(assert
 (let ((?x20777 ((_ extract 127 120) sigaction_oldact_437_1216)))
 (let ((?x20768 (bvand ?x20777 (_ bv4 8))))
 (and (distinct (_ bv0 8) ?x20768) true))))
(assert
 (let ((?x39797 ((_ extract 127 120) sigaction_oldact_706_1216)))
 (let ((?x39822 (bvand ?x39797 (_ bv4 8))))
 (= (_ bv0 8) ?x39822))))
(assert
 (let ((?x70668 ((_ extract 127 120) sigaction_oldact_1219_1216)))
 (let ((?x70687 (bvand ?x70668 (_ bv4 8))))
 (= (_ bv0 8) ?x70687))))
(maximize args_0_8)
(maximize sigaction_oldact_1219_1216)
(minimize sigaction_oldact_437_1216)
(maximize sigaction_oldact_304_1216)
(maximize sigaction_oldact_437_1216)
(maximize sigaction_oldact_204_1216)
(minimize sigaction_oldact_176_1216)
(maximize sigaction_oldact_187_1216)
(maximize sigaction_oldact_706_1216)
(maximize strlen_72_64)
(maximize sigaction_oldact_176_1216)
(minimize sigaction_oldact_1219_1216)
(minimize args_1_8)
(minimize strlen_75_64)
(check-sat)
(get-objectives)
